NAME : bayg29.2653.tour
COMMENT : Cost = 547_2653
COMMENT : Found by LKH [Keld Helsgaun] Thu Nov 16 17:25:38 2017
TYPE : TOUR
DIMENSION : 33
TOUR_SECTION
1
23
7
25
24
30
18
17
14
15
13
33
11
22
32
6
12
9
26
3
29
5
31
21
2
20
10
4
19
16
27
8
28
-1
EOF
